c "121958.clq"
p edge 198 2912
e 1 17
e 1 18
e 1 19
e 1 21
e 1 22
e 1 23
e 1 26
e 1 27
e 1 29
e 1 30
e 1 31
e 1 32
e 1 35
e 1 36
e 1 39
e 1 42
e 1 43
e 1 44
e 1 47
e 1 48
e 1 53
e 1 55
e 1 56
e 1 61
e 1 62
e 1 66
e 1 105
e 1 129
e 1 135
e 1 138
e 1 156
e 1 157
e 1 182
e 2 17
e 2 18
e 2 19
e 2 20
e 2 21
e 2 22
e 2 23
e 2 27
e 2 28
e 2 31
e 2 34
e 2 39
e 2 45
e 2 63
e 2 66
e 2 70
e 2 79
e 2 84
e 2 89
e 2 94
e 2 98
e 2 104
e 2 105
e 2 109
e 2 110
e 2 114
e 2 115
e 2 120
e 2 130
e 2 138
e 2 146
e 2 161
e 2 174
e 2 176
e 2 184
e 2 186
e 2 195
e 2 196
e 3 17
e 3 18
e 3 19
e 3 20
e 3 21
e 3 23
e 3 32
e 3 47
e 3 55
e 3 70
e 3 75
e 3 76
e 3 81
e 3 85
e 3 91
e 3 106
e 3 112
e 3 134
e 3 151
e 3 169
e 3 179
e 3 181
e 3 195
e 4 17
e 4 18
e 4 20
e 4 25
e 4 26
e 4 30
e 4 44
e 4 45
e 4 52
e 4 57
e 4 61
e 4 65
e 4 69
e 4 98
e 4 99
e 4 125
e 4 166
e 4 184
e 5 17
e 5 18
e 5 19
e 5 20
e 5 21
e 5 22
e 5 24
e 5 25
e 5 26
e 5 29
e 5 31
e 5 34
e 5 35
e 5 37
e 5 39
e 5 42
e 5 45
e 5 46
e 5 54
e 5 61
e 5 62
e 5 65
e 5 75
e 5 83
e 5 90
e 5 92
e 5 93
e 5 98
e 5 102
e 5 108
e 5 146
e 5 148
e 5 149
e 5 165
e 5 179
e 5 191
e 5 193
e 5 198
e 6 17
e 6 18
e 6 20
e 6 21
e 6 22
e 6 23
e 6 24
e 6 26
e 6 27
e 6 28
e 6 34
e 6 43
e 6 44
e 6 48
e 6 52
e 6 55
e 6 58
e 6 60
e 6 79
e 6 80
e 6 85
e 6 101
e 6 120
e 6 151
e 6 152
e 6 174
e 6 186
e 7 17
e 7 18
e 7 19
e 7 21
e 7 22
e 7 23
e 7 24
e 7 25
e 7 28
e 7 35
e 7 39
e 7 43
e 7 45
e 7 47
e 7 50
e 7 53
e 7 58
e 7 61
e 7 63
e 7 72
e 7 90
e 7 101
e 7 103
e 7 109
e 7 110
e 7 115
e 7 118
e 7 119
e 7 127
e 7 131
e 7 139
e 7 150
e 7 151
e 7 153
e 7 154
e 7 156
e 7 166
e 7 170
e 7 183
e 7 195
e 7 197
e 8 17
e 8 18
e 8 19
e 8 20
e 8 21
e 8 22
e 8 24
e 8 25
e 8 26
e 8 28
e 8 32
e 8 33
e 8 36
e 8 38
e 8 56
e 8 57
e 8 75
e 8 76
e 8 88
e 8 89
e 8 91
e 8 93
e 8 96
e 8 102
e 8 109
e 8 133
e 8 149
e 8 157
e 8 177
e 9 17
e 9 18
e 9 19
e 9 20
e 9 21
e 9 22
e 9 24
e 9 27
e 9 28
e 9 32
e 9 35
e 9 36
e 9 37
e 9 40
e 9 41
e 9 51
e 9 64
e 9 65
e 9 74
e 9 87
e 9 111
e 9 118
e 9 123
e 9 135
e 9 148
e 9 163
e 10 17
e 10 18
e 10 19
e 10 20
e 10 22
e 10 23
e 10 24
e 10 25
e 10 27
e 10 34
e 10 38
e 10 40
e 10 41
e 10 42
e 10 47
e 10 48
e 10 50
e 10 52
e 10 53
e 10 58
e 10 59
e 10 64
e 10 66
e 10 80
e 10 83
e 10 85
e 10 89
e 10 101
e 10 103
e 10 108
e 10 109
e 10 114
e 10 116
e 10 124
e 10 126
e 10 131
e 10 143
e 10 148
e 10 158
e 10 159
e 10 163
e 10 165
e 10 166
e 10 173
e 10 179
e 10 186
e 10 189
e 11 17
e 11 18
e 11 19
e 11 20
e 11 23
e 11 24
e 11 30
e 11 31
e 11 32
e 11 33
e 11 35
e 11 36
e 11 40
e 11 47
e 11 48
e 11 54
e 11 55
e 11 64
e 11 65
e 11 67
e 11 72
e 11 85
e 11 88
e 11 89
e 11 92
e 11 98
e 11 103
e 11 108
e 11 115
e 11 118
e 11 139
e 11 147
e 11 149
e 11 157
e 11 163
e 11 170
e 11 174
e 11 175
e 11 176
e 11 188
e 11 197
e 11 198
e 12 17
e 12 18
e 12 19
e 12 20
e 12 21
e 12 22
e 12 23
e 12 24
e 12 25
e 12 26
e 12 27
e 12 29
e 12 30
e 12 31
e 12 37
e 12 39
e 12 40
e 12 54
e 12 55
e 12 68
e 12 74
e 12 94
e 12 103
e 12 106
e 12 127
e 12 128
e 12 129
e 12 130
e 12 133
e 12 136
e 12 137
e 12 139
e 12 140
e 12 141
e 12 156
e 12 191
e 12 195
e 12 196
e 13 17
e 13 18
e 13 19
e 13 21
e 13 23
e 13 25
e 13 29
e 13 31
e 13 34
e 13 40
e 13 44
e 13 49
e 13 50
e 13 61
e 13 65
e 13 69
e 13 73
e 13 82
e 13 89
e 13 94
e 13 103
e 13 111
e 13 114
e 13 117
e 13 118
e 13 130
e 13 134
e 13 173
e 13 178
e 13 190
e 13 195
e 14 17
e 14 18
e 14 19
e 14 20
e 14 21
e 14 22
e 14 23
e 14 25
e 14 27
e 14 34
e 14 35
e 14 44
e 14 45
e 14 54
e 14 57
e 14 65
e 14 72
e 14 74
e 14 76
e 14 91
e 14 95
e 14 106
e 14 113
e 14 130
e 14 144
e 14 150
e 14 155
e 14 166
e 14 171
e 15 17
e 15 18
e 15 19
e 15 20
e 15 21
e 15 22
e 15 23
e 15 24
e 15 25
e 15 26
e 15 32
e 15 37
e 15 38
e 15 40
e 15 43
e 15 50
e 15 51
e 15 52
e 15 61
e 15 64
e 15 67
e 15 69
e 15 77
e 15 91
e 15 100
e 15 104
e 15 113
e 15 128
e 15 129
e 15 130
e 15 143
e 15 147
e 15 148
e 15 154
e 15 163
e 15 164
e 15 170
e 15 172
e 15 194
e 15 196
e 16 17
e 16 19
e 16 20
e 16 23
e 16 27
e 16 28
e 16 29
e 16 30
e 16 33
e 16 42
e 16 46
e 16 51
e 16 55
e 16 58
e 16 62
e 16 63
e 16 71
e 16 73
e 16 95
e 16 116
e 16 126
e 16 146
e 16 148
e 16 159
e 16 162
e 16 167
e 16 194
e 17 18
e 17 19
e 17 20
e 17 21
e 17 22
e 17 23
e 17 24
e 17 25
e 17 26
e 17 27
e 17 28
e 17 29
e 17 30
e 17 32
e 17 34
e 17 36
e 17 37
e 17 38
e 17 39
e 17 40
e 17 41
e 17 42
e 17 43
e 17 44
e 17 45
e 17 47
e 17 48
e 17 49
e 17 50
e 17 51
e 17 52
e 17 53
e 17 54
e 17 55
e 17 56
e 17 58
e 17 59
e 17 60
e 17 63
e 17 67
e 17 72
e 17 75
e 17 78
e 17 79
e 17 86
e 17 92
e 17 93
e 17 94
e 17 95
e 17 101
e 17 103
e 17 105
e 17 106
e 17 108
e 17 109
e 17 110
e 17 111
e 17 113
e 17 117
e 17 120
e 17 122
e 17 123
e 17 125
e 17 130
e 17 131
e 17 134
e 17 136
e 17 138
e 17 140
e 17 141
e 17 142
e 17 144
e 17 146
e 17 148
e 17 149
e 17 155
e 17 157
e 17 161
e 17 164
e 17 177
e 17 183
e 17 184
e 17 187
e 17 193
e 18 19
e 18 20
e 18 21
e 18 22
e 18 24
e 18 25
e 18 26
e 18 27
e 18 28
e 18 30
e 18 31
e 18 33
e 18 36
e 18 38
e 18 40
e 18 41
e 18 42
e 18 46
e 18 47
e 18 48
e 18 49
e 18 51
e 18 52
e 18 56
e 18 57
e 18 59
e 18 60
e 18 62
e 18 63
e 18 66
e 18 67
e 18 68
e 18 70
e 18 71
e 18 72
e 18 77
e 18 78
e 18 80
e 18 83
e 18 84
e 18 86
e 18 91
e 18 101
e 18 104
e 18 107
e 18 110
e 18 115
e 18 117
e 18 120
e 18 121
e 18 122
e 18 127
e 18 133
e 18 142
e 18 146
e 18 155
e 18 157
e 18 160
e 18 163
e 18 168
e 18 169
e 18 172
e 18 174
e 18 175
e 18 178
e 18 182
e 18 184
e 18 186
e 18 188
e 18 190
e 18 193
e 19 20
e 19 21
e 19 22
e 19 23
e 19 24
e 19 25
e 19 26
e 19 28
e 19 29
e 19 30
e 19 31
e 19 32
e 19 33
e 19 34
e 19 35
e 19 41
e 19 42
e 19 43
e 19 44
e 19 46
e 19 48
e 19 50
e 19 51
e 19 54
e 19 59
e 19 60
e 19 65
e 19 68
e 19 69
e 19 70
e 19 71
e 19 72
e 19 75
e 19 78
e 19 79
e 19 80
e 19 81
e 19 83
e 19 84
e 19 85
e 19 87
e 19 89
e 19 90
e 19 95
e 19 96
e 19 98
e 19 99
e 19 101
e 19 107
e 19 108
e 19 115
e 19 116
e 19 119
e 19 121
e 19 122
e 19 123
e 19 127
e 19 128
e 19 132
e 19 137
e 19 138
e 19 144
e 19 145
e 19 146
e 19 149
e 19 150
e 19 151
e 19 156
e 19 162
e 19 165
e 19 166
e 19 167
e 19 168
e 19 169
e 19 170
e 19 179
e 19 180
e 19 182
e 19 183
e 19 186
e 19 187
e 19 188
e 19 189
e 19 197
e 20 21
e 20 22
e 20 24
e 20 26
e 20 27
e 20 28
e 20 29
e 20 30
e 20 32
e 20 33
e 20 36
e 20 37
e 20 38
e 20 39
e 20 41
e 20 46
e 20 50
e 20 51
e 20 52
e 20 58
e 20 62
e 20 63
e 20 64
e 20 69
e 20 72
e 20 76
e 20 81
e 20 82
e 20 84
e 20 85
e 20 95
e 20 96
e 20 97
e 20 98
e 20 99
e 20 103
e 20 106
e 20 110
e 20 114
e 20 117
e 20 127
e 20 128
e 20 131
e 20 136
e 20 140
e 20 144
e 20 152
e 20 158
e 20 162
e 20 170
e 20 171
e 20 191
e 21 22
e 21 23
e 21 24
e 21 25
e 21 26
e 21 28
e 21 29
e 21 30
e 21 31
e 21 32
e 21 33
e 21 36
e 21 37
e 21 39
e 21 42
e 21 43
e 21 44
e 21 45
e 21 48
e 21 49
e 21 50
e 21 53
e 21 54
e 21 57
e 21 59
e 21 63
e 21 64
e 21 68
e 21 70
e 21 71
e 21 74
e 21 78
e 21 80
e 21 84
e 21 85
e 21 87
e 21 88
e 21 91
e 21 95
e 21 96
e 21 98
e 21 99
e 21 104
e 21 117
e 21 119
e 21 121
e 21 122
e 21 126
e 21 130
e 21 131
e 21 135
e 21 136
e 21 138
e 21 140
e 21 141
e 21 142
e 21 144
e 21 146
e 21 147
e 21 152
e 21 157
e 21 164
e 21 168
e 21 171
e 21 179
e 21 189
e 21 196
e 21 197
e 21 198
e 22 23
e 22 24
e 22 25
e 22 26
e 22 27
e 22 28
e 22 29
e 22 30
e 22 32
e 22 33
e 22 34
e 22 35
e 22 36
e 22 37
e 22 38
e 22 41
e 22 42
e 22 44
e 22 46
e 22 47
e 22 48
e 22 49
e 22 51
e 22 54
e 22 55
e 22 65
e 22 66
e 22 68
e 22 69
e 22 71
e 22 80
e 22 81
e 22 82
e 22 83
e 22 90
e 22 92
e 22 93
e 22 98
e 22 101
e 22 102
e 22 106
e 22 107
e 22 112
e 22 113
e 22 114
e 22 117
e 22 119
e 22 126
e 22 133
e 22 135
e 22 153
e 22 159
e 22 160
e 22 162
e 22 163
e 22 165
e 22 166
e 22 170
e 22 171
e 22 172
e 22 175
e 22 177
e 22 189
e 22 191
e 22 194
e 23 24
e 23 25
e 23 26
e 23 27
e 23 28
e 23 29
e 23 30
e 23 31
e 23 33
e 23 34
e 23 35
e 23 37
e 23 38
e 23 39
e 23 40
e 23 41
e 23 42
e 23 44
e 23 45
e 23 49
e 23 52
e 23 54
e 23 56
e 23 58
e 23 64
e 23 66
e 23 67
e 23 72
e 23 73
e 23 74
e 23 75
e 23 82
e 23 83
e 23 90
e 23 102
e 23 104
e 23 106
e 23 112
e 23 118
e 23 119
e 23 120
e 23 121
e 23 134
e 23 138
e 23 141
e 23 143
e 23 145
e 23 147
e 23 159
e 23 164
e 23 169
e 23 170
e 23 175
e 23 187
e 23 189
e 23 191
e 23 198
e 24 25
e 24 26
e 24 27
e 24 29
e 24 30
e 24 31
e 24 32
e 24 33
e 24 35
e 24 37
e 24 38
e 24 39
e 24 41
e 24 42
e 24 46
e 24 47
e 24 48
e 24 49
e 24 50
e 24 54
e 24 56
e 24 57
e 24 59
e 24 60
e 24 61
e 24 62
e 24 65
e 24 67
e 24 71
e 24 74
e 24 79
e 24 80
e 24 83
e 24 84
e 24 87
e 24 90
e 24 101
e 24 107
e 24 108
e 24 109
e 24 110
e 24 112
e 24 113
e 24 116
e 24 122
e 24 125
e 24 132
e 24 135
e 24 136
e 24 137
e 24 149
e 24 153
e 24 161
e 24 162
e 24 168
e 24 176
e 24 180
e 24 182
e 24 187
e 24 190
e 24 191
e 24 193
e 24 196
e 24 197
e 25 26
e 25 27
e 25 28
e 25 29
e 25 30
e 25 31
e 25 32
e 25 33
e 25 34
e 25 35
e 25 36
e 25 37
e 25 38
e 25 39
e 25 40
e 25 41
e 25 42
e 25 43
e 25 44
e 25 45
e 25 46
e 25 47
e 25 48
e 25 50
e 25 51
e 25 52
e 25 53
e 25 54
e 25 56
e 25 57
e 25 58
e 25 63
e 25 64
e 25 70
e 25 71
e 25 73
e 25 74
e 25 76
e 25 78
e 25 80
e 25 82
e 25 83
e 25 86
e 25 89
e 25 91
e 25 92
e 25 97
e 25 100
e 25 105
e 25 106
e 25 107
e 25 110
e 25 111
e 25 113
e 25 118
e 25 119
e 25 122
e 25 124
e 25 132
e 25 136
e 25 141
e 25 142
e 25 146
e 25 148
e 25 154
e 25 156
e 25 164
e 25 165
e 25 178
e 25 179
e 25 189
e 25 190
e 25 196
e 25 198
e 26 27
e 26 28
e 26 29
e 26 30
e 26 31
e 26 34
e 26 35
e 26 36
e 26 38
e 26 41
e 26 43
e 26 46
e 26 47
e 26 48
e 26 49
e 26 50
e 26 53
e 26 55
e 26 58
e 26 59
e 26 61
e 26 62
e 26 66
e 26 67
e 26 72
e 26 74
e 26 75
e 26 78
e 26 80
e 26 87
e 26 88
e 26 90
e 26 95
e 26 96
e 26 101
e 26 104
e 26 105
e 26 108
e 26 109
e 26 117
e 26 126
e 26 133
e 26 140
e 26 142
e 26 143
e 26 144
e 26 145
e 26 146
e 26 152
e 26 157
e 26 162
e 26 169
e 26 172
e 26 183
e 26 184
e 26 185
e 26 186
e 26 187
e 26 191
e 26 193
e 26 197
e 27 28
e 27 29
e 27 30
e 27 31
e 27 32
e 27 36
e 27 37
e 27 42
e 27 43
e 27 44
e 27 49
e 27 51
e 27 55
e 27 60
e 27 61
e 27 62
e 27 64
e 27 70
e 27 73
e 27 78
e 27 83
e 27 87
e 27 93
e 27 99
e 27 107
e 27 115
e 27 119
e 27 121
e 27 132
e 27 139
e 27 145
e 27 148
e 27 150
e 27 158
e 27 175
e 27 177
e 27 185
e 28 29
e 28 33
e 28 34
e 28 37
e 28 39
e 28 41
e 28 42
e 28 46
e 28 47
e 28 49
e 28 50
e 28 51
e 28 52
e 28 53
e 28 55
e 28 58
e 28 59
e 28 61
e 28 76
e 28 82
e 28 85
e 28 86
e 28 90
e 28 91
e 28 97
e 28 106
e 28 113
e 28 117
e 28 123
e 28 137
e 28 139
e 28 140
e 28 142
e 28 145
e 28 147
e 28 153
e 28 156
e 28 165
e 28 168
e 28 180
e 28 184
e 28 186
e 29 31
e 29 33
e 29 37
e 29 38
e 29 40
e 29 41
e 29 42
e 29 45
e 29 48
e 29 52
e 29 59
e 29 63
e 29 68
e 29 70
e 29 73
e 29 77
e 29 79
e 29 86
e 29 90
e 29 94
e 29 95
e 29 108
e 29 118
e 29 121
e 29 128
e 29 129
e 29 131
e 29 135
e 29 138
e 29 145
e 29 151
e 29 163
e 29 165
e 29 167
e 29 176
e 29 190
e 30 31
e 30 32
e 30 33
e 30 34
e 30 37
e 30 39
e 30 44
e 30 45
e 30 46
e 30 51
e 30 57
e 30 61
e 30 63
e 30 64
e 30 65
e 30 67
e 30 76
e 30 77
e 30 78
e 30 81
e 30 82
e 30 90
e 30 91
e 30 94
e 30 98
e 30 111
e 30 116
e 30 118
e 30 121
e 30 125
e 30 132
e 30 137
e 30 145
e 30 151
e 30 158
e 30 170
e 30 180
e 30 181
e 30 182
e 30 196
e 31 32
e 31 33
e 31 34
e 31 35
e 31 36
e 31 38
e 31 39
e 31 40
e 31 43
e 31 44
e 31 46
e 31 49
e 31 53
e 31 60
e 31 66
e 31 67
e 31 69
e 31 81
e 31 95
e 31 97
e 31 100
e 31 104
e 31 105
e 31 107
e 31 116
e 31 129
e 31 132
e 31 150
e 31 152
e 31 154
e 31 166
e 31 173
e 31 188
e 32 33
e 32 35
e 32 46
e 32 51
e 32 56
e 32 57
e 32 59
e 32 62
e 32 63
e 32 64
e 32 67
e 32 70
e 32 73
e 32 77
e 32 81
e 32 84
e 32 86
e 32 92
e 32 93
e 32 95
e 32 108
e 32 117
e 32 122
e 32 129
e 32 144
e 32 151
e 32 166
e 32 167
e 32 172
e 32 173
e 32 182
e 32 193
e 33 34
e 33 35
e 33 36
e 33 41
e 33 46
e 33 49
e 33 50
e 33 54
e 33 55
e 33 56
e 33 67
e 33 71
e 33 73
e 33 74
e 33 76
e 33 82
e 33 86
e 33 87
e 33 88
e 33 96
e 33 99
e 33 102
e 33 103
e 33 108
e 33 110
e 33 119
e 33 122
e 33 127
e 33 133
e 33 136
e 33 140
e 33 143
e 33 145
e 33 152
e 33 153
e 33 169
e 33 170
e 33 181
e 33 188
e 34 35
e 34 36
e 34 38
e 34 44
e 34 45
e 34 46
e 34 50
e 34 52
e 34 54
e 34 55
e 34 60
e 34 62
e 34 67
e 34 78
e 34 80
e 34 82
e 34 87
e 34 89
e 34 93
e 34 97
e 34 104
e 34 107
e 34 108
e 34 109
e 34 114
e 34 115
e 34 120
e 34 132
e 34 137
e 34 138
e 34 143
e 34 146
e 34 147
e 34 149
e 34 150
e 34 158
e 34 165
e 34 172
e 34 174
e 34 181
e 34 198
e 35 36
e 35 42
e 35 43
e 35 51
e 35 69
e 35 73
e 35 76
e 35 79
e 35 83
e 35 84
e 35 99
e 35 100
e 35 104
e 35 111
e 35 115
e 35 124
e 35 127
e 35 133
e 35 142
e 35 146
e 35 178
e 35 186
e 35 193
e 36 37
e 36 38
e 36 40
e 36 41
e 36 43
e 36 52
e 36 54
e 36 57
e 36 58
e 36 60
e 36 61
e 36 65
e 36 68
e 36 69
e 36 70
e 36 71
e 36 72
e 36 81
e 36 89
e 36 91
e 36 92
e 36 94
e 36 101
e 36 103
e 36 104
e 36 121
e 36 123
e 36 129
e 36 131
e 36 134
e 36 139
e 36 141
e 36 142
e 36 154
e 36 156
e 36 161
e 36 182
e 36 188
e 36 193
e 36 194
e 36 196
e 37 38
e 37 39
e 37 40
e 37 43
e 37 45
e 37 47
e 37 48
e 37 52
e 37 53
e 37 54
e 37 55
e 37 61
e 37 76
e 37 78
e 37 80
e 37 83
e 37 86
e 37 90
e 37 91
e 37 92
e 37 93
e 37 94
e 37 96
e 37 109
e 37 110
e 37 112
e 37 113
e 37 120
e 37 123
e 37 124
e 37 127
e 37 129
e 37 130
e 37 131
e 37 135
e 37 137
e 37 139
e 37 155
e 37 175
e 37 176
e 37 177
e 37 192
e 37 195
e 37 196
e 37 197
e 38 39
e 38 40
e 38 43
e 38 48
e 38 51
e 38 55
e 38 59
e 38 65
e 38 70
e 38 78
e 38 84
e 38 85
e 38 89
e 38 92
e 38 96
e 38 111
e 38 113
e 38 115
e 38 126
e 38 128
e 38 135
e 38 136
e 38 143
e 38 147
e 38 155
e 38 160
e 38 161
e 38 162
e 38 173
e 38 180
e 38 182
e 38 189
e 38 195
e 39 40
e 39 45
e 39 46
e 39 49
e 39 50
e 39 53
e 39 55
e 39 56
e 39 57
e 39 58
e 39 59
e 39 60
e 39 61
e 39 62
e 39 66
e 39 67
e 39 75
e 39 77
e 39 79
e 39 80
e 39 82
e 39 113
e 39 138
e 39 140
e 39 150
e 39 157
e 39 168
e 39 169
e 39 179
e 39 186
e 39 198
e 40 41
e 40 43
e 40 52
e 40 57
e 40 58
e 40 64
e 40 65
e 40 66
e 40 77
e 40 92
e 40 97
e 40 98
e 40 121
e 40 126
e 40 133
e 40 136
e 40 146
e 40 156
e 40 160
e 40 162
e 40 171
e 40 182
e 40 183
e 40 194
e 41 48
e 41 65
e 41 75
e 41 77
e 41 79
e 41 93
e 41 103
e 41 111
e 41 132
e 41 137
e 41 148
e 41 154
e 41 169
e 41 172
e 41 173
e 41 180
e 41 197
e 42 44
e 42 45
e 42 47
e 42 53
e 42 54
e 42 56
e 42 77
e 42 83
e 42 87
e 42 95
e 42 97
e 42 98
e 42 125
e 42 131
e 42 146
e 42 150
e 42 158
e 42 167
e 42 181
e 42 188
e 42 191
e 43 45
e 43 47
e 43 50
e 43 52
e 43 53
e 43 56
e 43 57
e 43 59
e 43 66
e 43 69
e 43 80
e 43 93
e 43 95
e 43 97
e 43 108
e 43 109
e 43 115
e 43 122
e 43 125
e 43 143
e 43 144
e 43 154
e 43 185
e 43 186
e 43 195
e 44 47
e 44 53
e 44 60
e 44 62
e 44 64
e 44 66
e 44 73
e 44 75
e 44 77
e 44 82
e 44 85
e 44 88
e 44 89
e 44 91
e 44 94
e 44 99
e 44 100
e 44 105
e 44 112
e 44 119
e 44 128
e 44 130
e 44 133
e 44 137
e 44 138
e 44 143
e 44 145
e 44 153
e 44 159
e 44 164
e 44 181
e 44 189
e 45 49
e 45 60
e 45 65
e 45 70
e 45 71
e 45 79
e 45 86
e 45 89
e 45 98
e 45 99
e 45 106
e 45 115
e 45 120
e 45 121
e 45 134
e 45 136
e 45 139
e 45 157
e 45 172
e 45 175
e 45 194
e 46 49
e 46 51
e 46 53
e 46 56
e 46 59
e 46 60
e 46 61
e 46 62
e 46 63
e 46 66
e 46 72
e 46 75
e 46 81
e 46 88
e 46 90
e 46 97
e 46 104
e 46 107
e 46 110
e 46 114
e 46 119
e 46 124
e 46 131
e 46 133
e 46 143
e 46 144
e 46 151
e 46 154
e 46 155
e 46 162
e 46 167
e 46 169
e 46 176
e 46 177
e 46 179
e 47 56
e 47 57
e 47 59
e 47 66
e 47 69
e 47 78
e 47 89
e 47 100
e 47 111
e 47 116
e 47 122
e 47 137
e 47 141
e 47 153
e 47 161
e 47 162
e 47 178
e 47 188
e 47 195
e 48 49
e 48 53
e 48 56
e 48 62
e 48 64
e 48 65
e 48 68
e 48 71
e 48 73
e 48 74
e 48 78
e 48 79
e 48 80
e 48 94
e 48 96
e 48 112
e 48 114
e 48 117
e 48 121
e 48 123
e 48 124
e 48 135
e 48 149
e 48 168
e 48 170
e 48 171
e 48 173
e 48 178
e 48 193
e 48 194
e 48 196
e 49 56
e 49 58
e 49 59
e 49 69
e 49 72
e 49 75
e 49 100
e 49 102
e 49 116
e 49 118
e 49 121
e 49 124
e 49 128
e 49 134
e 49 135
e 49 139
e 49 140
e 49 143
e 49 148
e 49 152
e 49 155
e 49 157
e 49 158
e 49 170
e 49 171
e 49 177
e 49 178
e 49 179
e 49 183
e 49 189
e 49 190
e 49 197
e 50 70
e 50 72
e 50 87
e 50 96
e 50 102
e 50 116
e 50 123
e 50 125
e 50 134
e 50 142
e 50 150
e 50 162
e 50 166
e 50 180
e 50 196
e 51 64
e 51 70
e 51 79
e 51 85
e 51 87
e 51 88
e 51 89
e 51 93
e 51 109
e 51 111
e 51 115
e 51 122
e 51 123
e 51 131
e 51 160
e 51 163
e 51 168
e 51 175
e 51 176
e 51 177
e 51 182
e 51 191
e 51 197
e 52 57
e 52 62
e 52 66
e 52 69
e 52 73
e 52 82
e 52 88
e 52 99
e 52 101
e 52 103
e 52 108
e 52 113
e 52 127
e 52 149
e 52 165
e 52 175
e 52 176
e 52 187
e 52 193
e 53 60
e 53 73
e 53 74
e 53 76
e 53 80
e 53 82
e 53 89
e 53 92
e 53 98
e 53 107
e 53 130
e 53 137
e 53 142
e 53 150
e 53 156
e 53 167
e 53 180
e 53 189
e 54 57
e 54 63
e 54 68
e 54 69
e 54 71
e 54 76
e 54 79
e 54 81
e 54 82
e 54 83
e 54 86
e 54 105
e 54 110
e 54 115
e 54 118
e 54 119
e 54 122
e 54 128
e 54 138
e 54 142
e 54 165
e 54 170
e 54 185
e 54 187
e 54 198
e 55 58
e 55 66
e 55 67
e 55 68
e 55 71
e 55 76
e 55 77
e 55 79
e 55 81
e 55 84
e 55 90
e 55 93
e 55 94
e 55 105
e 55 114
e 55 116
e 55 127
e 55 133
e 55 134
e 55 158
e 55 159
e 55 169
e 55 171
e 55 184
e 55 191
e 56 63
e 56 84
e 56 88
e 56 96
e 56 98
e 56 103
e 56 117
e 56 123
e 56 124
e 56 141
e 56 152
e 56 157
e 56 170
e 56 185
e 56 195
e 57 58
e 57 60
e 57 61
e 57 62
e 57 67
e 57 68
e 57 74
e 57 75
e 57 76
e 57 89
e 57 97
e 57 119
e 57 124
e 57 151
e 57 177
e 57 184
e 58 60
e 58 68
e 58 73
e 58 83
e 58 86
e 58 87
e 58 95
e 58 97
e 58 104
e 58 106
e 58 114
e 58 125
e 58 132
e 58 154
e 58 161
e 58 173
e 58 188
e 58 190
e 59 63
e 59 68
e 59 72
e 59 78
e 59 84
e 59 91
e 59 107
e 59 109
e 59 153
e 59 156
e 59 181
e 59 184
e 59 187
e 60 68
e 60 72
e 60 74
e 60 78
e 60 81
e 60 102
e 60 103
e 60 105
e 60 126
e 60 128
e 60 139
e 60 141
e 60 143
e 60 144
e 60 147
e 60 167
e 60 175
e 60 176
e 60 191
e 61 63
e 61 69
e 61 73
e 61 74
e 61 85
e 61 93
e 61 97
e 61 99
e 61 100
e 61 104
e 61 116
e 61 118
e 61 120
e 61 123
e 61 125
e 61 130
e 61 139
e 61 151
e 61 168
e 61 178
e 61 180
e 61 183
e 61 195
e 61 197
e 62 64
e 62 67
e 62 68
e 62 71
e 62 88
e 62 122
e 62 133
e 62 134
e 62 164
e 62 170
e 62 189
e 63 68
e 63 72
e 63 74
e 63 78
e 63 85
e 63 95
e 63 104
e 63 128
e 63 130
e 63 132
e 63 167
e 63 179
e 63 185
e 63 197
e 63 198
e 64 69
e 64 71
e 64 94
e 64 99
e 64 106
e 64 109
e 64 111
e 64 117
e 64 118
e 64 134
e 64 138
e 64 147
e 64 148
e 64 149
e 64 150
e 64 156
e 64 160
e 64 171
e 64 181
e 64 188
e 65 85
e 65 96
e 65 100
e 65 114
e 65 118
e 65 125
e 65 130
e 65 178
e 65 180
e 65 183
e 65 192
e 65 198
e 66 71
e 66 74
e 66 76
e 66 86
e 66 88
e 66 101
e 66 105
e 66 111
e 66 114
e 66 122
e 66 133
e 66 137
e 66 146
e 66 150
e 66 152
e 66 155
e 66 178
e 66 190
e 66 197
e 67 70
e 67 76
e 67 77
e 67 81
e 67 84
e 67 86
e 67 94
e 67 99
e 67 100
e 67 102
e 67 105
e 67 112
e 67 116
e 67 132
e 67 141
e 67 145
e 67 153
e 67 154
e 67 185
e 68 77
e 68 86
e 68 92
e 68 94
e 68 96
e 68 102
e 68 112
e 68 145
e 68 179
e 68 187
e 68 196
e 69 70
e 69 77
e 69 82
e 69 87
e 69 88
e 69 91
e 69 100
e 69 125
e 69 132
e 69 152
e 69 155
e 69 163
e 69 173
e 69 183
e 69 186
e 69 195
e 70 81
e 70 84
e 70 112
e 70 117
e 70 155
e 70 158
e 70 166
e 70 195
e 71 73
e 71 75
e 71 97
e 71 105
e 71 109
e 71 126
e 71 172
e 71 175
e 71 176
e 71 181
e 71 198
e 72 75
e 72 79
e 72 83
e 72 92
e 72 97
e 72 102
e 72 111
e 72 116
e 72 126
e 72 127
e 72 129
e 72 134
e 72 148
e 72 150
e 72 153
e 72 158
e 72 164
e 72 180
e 72 189
e 72 191
e 73 93
e 73 96
e 73 135
e 73 149
e 73 156
e 73 159
e 73 181
e 73 184
e 73 192
e 73 198
e 74 75
e 74 79
e 74 110
e 74 118
e 74 123
e 74 128
e 74 135
e 74 139
e 74 140
e 74 141
e 74 149
e 74 151
e 74 164
e 74 167
e 74 180
e 75 77
e 75 80
e 75 81
e 75 99
e 75 100
e 75 101
e 75 108
e 75 112
e 75 119
e 75 123
e 75 124
e 75 131
e 75 138
e 75 139
e 75 142
e 75 143
e 75 151
e 75 164
e 75 186
e 75 196
e 75 198
e 76 77
e 76 90
e 76 105
e 76 112
e 76 127
e 76 135
e 76 174
e 77 84
e 77 98
e 77 110
e 77 111
e 77 123
e 77 124
e 77 154
e 77 160
e 77 172
e 77 179
e 77 181
e 77 184
e 77 189
e 77 191
e 78 81
e 78 87
e 78 88
e 78 92
e 78 93
e 78 94
e 78 102
e 78 107
e 78 116
e 78 121
e 78 137
e 78 140
e 78 154
e 78 160
e 78 161
e 78 163
e 78 165
e 78 179
e 78 186
e 78 187
e 78 189
e 79 83
e 79 84
e 79 87
e 79 102
e 79 104
e 79 112
e 79 115
e 79 120
e 79 124
e 79 143
e 79 147
e 79 151
e 79 152
e 79 167
e 79 173
e 79 176
e 79 177
e 79 192
e 80 85
e 80 86
e 80 92
e 80 100
e 80 102
e 80 103
e 80 105
e 80 106
e 80 154
e 80 172
e 80 180
e 80 192
e 80 195
e 81 82
e 81 86
e 81 87
e 81 95
e 81 110
e 81 113
e 81 129
e 81 145
e 81 160
e 81 167
e 81 175
e 81 178
e 81 181
e 81 187
e 81 192
e 82 85
e 82 88
e 82 126
e 82 136
e 82 137
e 82 141
e 82 144
e 82 148
e 82 153
e 82 159
e 83 106
e 83 120
e 83 122
e 83 126
e 83 130
e 83 146
e 83 153
e 83 183
e 83 190
e 84 88
e 84 93
e 84 97
e 84 107
e 84 111
e 84 116
e 84 121
e 84 159
e 84 175
e 84 179
e 84 198
e 85 91
e 85 94
e 85 95
e 85 100
e 85 111
e 85 112
e 85 118
e 85 125
e 85 129
e 85 131
e 85 141
e 85 150
e 85 153
e 85 155
e 85 171
e 85 178
e 85 179
e 86 90
e 86 104
e 86 107
e 86 108
e 86 122
e 86 124
e 86 129
e 86 132
e 86 145
e 86 169
e 86 194
e 87 96
e 87 110
e 87 112
e 87 119
e 87 120
e 87 134
e 87 159
e 87 178
e 88 90
e 88 100
e 88 102
e 88 113
e 88 119
e 88 120
e 88 124
e 88 147
e 88 163
e 88 166
e 88 171
e 88 172
e 89 91
e 89 99
e 89 107
e 89 112
e 89 135
e 89 136
e 89 156
e 89 168
e 89 176
e 89 187
e 89 193
e 90 92
e 90 96
e 90 101
e 90 108
e 90 123
e 90 136
e 90 147
e 90 159
e 90 169
e 90 174
e 90 179
e 90 182
e 91 101
e 91 106
e 91 125
e 91 127
e 91 140
e 91 160
e 91 167
e 91 168
e 92 98
e 92 124
e 92 130
e 92 153
e 92 173
e 92 187
e 93 102
e 93 106
e 93 113
e 93 128
e 93 129
e 93 155
e 93 157
e 93 159
e 94 99
e 94 110
e 94 131
e 94 132
e 94 136
e 94 161
e 94 164
e 94 178
e 94 184
e 94 190
e 95 101
e 95 114
e 95 115
e 95 126
e 95 142
e 95 150
e 95 158
e 95 161
e 96 97
e 96 100
e 96 103
e 96 120
e 96 127
e 96 132
e 96 144
e 96 147
e 96 149
e 96 152
e 96 153
e 96 174
e 97 107
e 97 121
e 97 140
e 97 149
e 97 163
e 97 174
e 97 181
e 98 114
e 98 117
e 98 130
e 98 141
e 98 150
e 98 155
e 98 159
e 98 173
e 98 182
e 98 186
e 98 192
e 99 103
e 99 105
e 99 114
e 99 117
e 99 127
e 99 135
e 99 141
e 99 177
e 99 182
e 99 192
e 100 113
e 100 164
e 100 174
e 100 181
e 101 129
e 101 173
e 101 176
e 101 185
e 102 113
e 102 134
e 102 136
e 102 142
e 102 169
e 102 183
e 103 120
e 103 137
e 103 182
e 104 109
e 104 115
e 104 126
e 104 133
e 104 145
e 104 155
e 104 158
e 104 160
e 104 161
e 104 164
e 104 167
e 104 190
e 104 192
e 105 158
e 105 194
e 106 126
e 106 144
e 106 149
e 106 151
e 106 167
e 107 128
e 107 145
e 107 160
e 107 162
e 107 164
e 107 180
e 108 109
e 108 131
e 108 138
e 108 161
e 108 162
e 108 166
e 109 129
e 109 152
e 109 176
e 109 177
e 109 180
e 109 192
e 110 114
e 110 137
e 110 165
e 110 166
e 110 173
e 110 183
e 110 187
e 110 194
e 111 132
e 111 134
e 111 143
e 112 120
e 112 138
e 112 139
e 112 141
e 112 162
e 112 166
e 112 171
e 112 173
e 113 116
e 113 121
e 113 127
e 114 125
e 114 139
e 114 147
e 114 158
e 114 161
e 114 171
e 114 172
e 114 182
e 115 117
e 115 123
e 115 125
e 115 128
e 115 131
e 115 139
e 115 163
e 115 185
e 115 191
e 115 192
e 116 133
e 116 162
e 116 164
e 116 185
e 116 193
e 116 197
e 117 118
e 117 119
e 117 136
e 117 155
e 117 189
e 118 125
e 118 129
e 118 144
e 118 157
e 118 175
e 118 178
e 118 190
e 119 133
e 119 154
e 119 160
e 119 171
e 119 188
e 119 195
e 120 124
e 120 152
e 120 157
e 121 138
e 121 140
e 121 149
e 121 161
e 121 170
e 121 174
e 121 194
e 122 166
e 122 169
e 122 178
e 123 126
e 123 177
e 123 194
e 123 197
e 124 176
e 125 128
e 125 143
e 126 166
e 127 151
e 127 174
e 127 193
e 128 134
e 128 174
e 128 192
e 129 153
e 129 167
e 129 168
e 129 185
e 130 140
e 130 144
e 130 168
e 131 135
e 131 148
e 131 152
e 131 156
e 131 163
e 131 168
e 132 148
e 132 154
e 132 159
e 133 168
e 133 197
e 134 142
e 134 147
e 134 158
e 134 161
e 134 185
e 135 159
e 135 177
e 135 186
e 136 144
e 136 168
e 136 180
e 136 185
e 136 188
e 137 140
e 137 165
e 137 169
e 137 174
e 137 183
e 137 190
e 138 142
e 138 151
e 138 152
e 138 157
e 138 163
e 138 188
e 139 159
e 141 148
e 141 162
e 141 173
e 141 175
e 141 184
e 143 145
e 143 146
e 143 147
e 143 156
e 143 184
e 143 185
e 144 165
e 144 172
e 144 187
e 144 193
e 146 160
e 147 155
e 147 174
e 148 158
e 148 160
e 148 184
e 149 154
e 150 165
e 150 196
e 151 160
e 151 174
e 151 181
e 151 188
e 152 183
e 152 185
e 152 191
e 153 198
e 155 156
e 155 157
e 155 164
e 155 175
e 155 190
e 155 192
e 156 161
e 156 165
e 156 171
e 157 172
e 157 177
e 157 194
e 158 171
e 158 194
e 159 163
e 159 172
e 159 187
e 160 176
e 160 194
e 161 170
e 161 182
e 161 190
e 161 192
e 162 191
e 163 184
e 166 169
e 166 186
e 166 193
e 168 181
e 171 185
e 172 195
e 173 193
e 174 198
e 175 177
e 176 183
e 177 188
e 177 196
e 178 183
e 178 196
e 179 192
e 180 192
e 182 188
e 183 189
e 185 190
e 185 194
